Copyright (C) 2013-2015, Filipe Brandao
Build (method = -2)
  #dp: 137581
  Step-3' Graph: 1689 vertices and 66845 arcs (1.83s)
  Step-4' Graph: 1686 vertices and 66839 arcs (1.87s)
  #V4/#V3 = 1.00
  #A4/#A3 = 1.00
Ready! (1.87s)
Optimize a model with 1851 rows, 66840 columns and 197153 nonzeros
Coefficient statistics:
  Matrix range    [1e+00, 1e+00]
  Objective range [1e+00, 1e+00]
  Bounds range    [1e+00, 6e+00]
  RHS range       [1e+00, 6e+00]
Presolve removed 75 rows and 76 columns
Presolve time: 0.60s
Presolved: 1776 rows, 66764 columns, 196954 nonzeros
Variable types: 0 continuous, 66764 integer (50172 binary)
Found heuristic solution: objective 91.0000000
Optimize a model with 1776 rows, 66764 columns and 196954 nonzeros
Coefficient statistics:
  Matrix range    [1e+00, 2e+00]
  Objective range [1e+00, 1e+00]
  Bounds range    [1e+00, 4e+03]
  RHS range       [1e+00, 6e+01]
Presolved: 1776 rows, 66764 columns, 196954 nonzeros

Root barrier log...

Ordering time: 0.10s

Barrier statistics:
 AA' NZ     : 1.390e+05
 Factor NZ  : 6.688e+05 (roughly 30 MBytes of memory)
 Factor Ops : 3.603e+08 (less than 1 second per iteration)
 Threads    : 1

                  Objective                Residual
Iter       Primal          Dual         Primal    Dual     Compl     Time
   0   1.30343268e+04 -2.37493067e+05  2.33e+05 1.23e-01  5.20e+01     3s
   1   2.26938575e+03 -1.20225964e+05  3.71e+04 3.23e-02  8.77e+00     3s
   2   1.25460848e+03 -4.45688589e+04  6.16e+03 3.83e-03  1.59e+00     3s
   3   1.05797265e+03 -1.80552015e+04  1.15e+03 2.70e-04  3.45e-01     3s
   4   7.49256602e+02 -4.29835506e+03  2.05e+02 8.88e-15  7.01e-02     3s
   5   4.36956634e+02 -1.39611177e+03  5.88e+01 3.89e-15  2.31e-02     3s
   6   3.92582656e+02 -1.09145942e+03  4.78e+01 3.44e-15  1.87e-02     3s
   7   3.00960677e+02 -1.00185055e+03  3.00e+01 2.78e-15  1.45e-02     3s
   8   2.01434610e+02 -5.30255059e+02  1.30e+01 1.89e-15  7.43e-03     3s
   9   1.62187382e+02 -2.81188091e+02  7.95e+00 1.11e-15  4.35e-03     4s
  10   1.43787681e+02 -1.70235846e+02  5.53e+00 1.11e-15  2.98e-03     4s
  11   1.26858209e+02 -1.39251028e+02  4.12e+00 6.66e-16  2.44e-03     4s
  12   1.20912395e+02 -8.84773688e+01  3.54e+00 6.05e-16  1.92e-03     4s
  13   1.18563811e+02 -7.95694629e+01  3.32e+00 7.11e-16  1.81e-03     4s
  14   1.15306945e+02 -7.35673048e+01  2.97e+00 8.62e-16  1.70e-03     4s
  15   1.09387482e+02 -4.56426326e+01  2.46e+00 7.96e-16  1.38e-03     4s
  16   9.57983998e+01 -1.01038704e+01  1.65e+00 6.66e-16  9.19e-04     4s
  17   8.64200054e+01  2.04432848e+01  1.07e+00 5.01e-16  5.60e-04     5s
  18   7.69403848e+01  3.69551144e+01  5.37e-01 4.34e-16  3.27e-04     5s
  19   7.38847520e+01  4.50988858e+01  3.81e-01 4.68e-16  2.32e-04     5s
  20   7.10404079e+01  5.07862501e+01  2.43e-01 5.19e-16  1.61e-04     5s
  21   6.99220439e+01  5.27693961e+01  1.94e-01 5.47e-16  1.35e-04     5s
  22   6.82744622e+01  5.77902451e+01  1.31e-01 4.17e-16  8.24e-05     5s
  23   6.66084369e+01  6.07424431e+01  7.78e-02 3.85e-16  4.60e-05     5s
  24   6.58722544e+01  6.16528553e+01  5.49e-02 4.39e-16  3.30e-05     5s
  25   6.56726854e+01  6.21591200e+01  4.55e-02 5.48e-16  2.74e-05     5s
  26   6.56003383e+01  6.28601551e+01  4.04e-02 5.21e-16  2.14e-05     5s
  27   6.55732031e+01  6.29640274e+01  3.92e-02 6.09e-16  2.04e-05     6s
  28   6.55407481e+01  6.33387752e+01  3.68e-02 4.70e-16  1.72e-05     6s
  29   6.52980739e+01  6.36767061e+01  2.07e-02 5.78e-16  1.25e-05     6s
  30   6.51913208e+01  6.41726419e+01  1.29e-02 4.96e-16  7.78e-06     6s
  31   6.51407817e+01  6.43411171e+01  9.41e-03 4.91e-16  6.08e-06     6s
  32   6.51132188e+01  6.45167271e+01  7.14e-03 5.92e-16  4.53e-06     6s
  33   6.51113938e+01  6.45709680e+01  7.00e-03 5.84e-16  4.10e-06     6s
  34   6.50873474e+01  6.46634196e+01  5.03e-03 5.49e-16  3.21e-06     6s
  35   6.50678332e+01  6.47136433e+01  3.61e-03 6.04e-16  2.68e-06     6s
  36   6.50616624e+01  6.47426274e+01  3.17e-03 6.24e-16  2.41e-06     6s
  37   6.50473595e+01  6.48288921e+01  2.16e-03 5.75e-16  1.65e-06     7s
  38   6.50407256e+01  6.48707138e+01  1.81e-03 5.63e-16  1.28e-06     7s
  39   6.50392330e+01  6.48787575e+01  1.72e-03 6.78e-16  1.21e-06     7s
  40   6.50370229e+01  6.48949406e+01  1.62e-03 6.09e-16  1.07e-06     7s
  41   6.50306052e+01  6.49032208e+01  1.28e-03 6.38e-16  9.60e-07     7s
  42   6.50247761e+01  6.49199191e+01  9.61e-04 6.44e-16  7.89e-07     7s
  43   6.50219992e+01  6.49315404e+01  8.26e-04 6.58e-16  6.81e-07     7s
  44   6.50203832e+01  6.49385389e+01  7.65e-04 6.85e-16  6.16e-07     7s
  45   6.50180717e+01  6.49467933e+01  6.37e-04 8.89e-16  5.36e-07     7s
  46   6.50176980e+01  6.49514875e+01  6.13e-04 7.50e-16  4.98e-07     8s
  47   6.50169720e+01  6.49551360e+01  5.63e-04 7.80e-16  4.65e-07     8s
  48   6.50148742e+01  6.49607119e+01  4.37e-04 8.26e-16  4.07e-07     8s
  49   6.50142737e+01  6.49668956e+01  4.16e-04 7.35e-16  3.56e-07     8s
  50   6.50118949e+01  6.49721603e+01  3.49e-04 8.11e-16  2.99e-07     8s
  51   6.50101471e+01  6.49778152e+01  2.89e-04 6.12e-16  2.43e-07     8s
  52   6.50092161e+01  6.49802614e+01  2.45e-04 6.92e-16  2.18e-07     8s
  53   6.50089131e+01  6.49823550e+01  2.33e-04 7.09e-16  2.00e-07     8s
  54   6.50087393e+01  6.49827640e+01  2.25e-04 8.10e-16  1.95e-07     8s
  55   6.50076684e+01  6.49847793e+01  1.89e-04 7.43e-16  1.72e-07     8s
  56   6.50062960e+01  6.49888050e+01  1.48e-04 6.39e-16  1.31e-07     9s
  57   6.50058245e+01  6.49896447e+01  1.35e-04 6.60e-16  1.22e-07     9s
  58   6.50049202e+01  6.49912372e+01  1.11e-04 7.70e-16  1.03e-07     9s
  59   6.50042405e+01  6.49929119e+01  9.46e-05 7.35e-16  8.51e-08     9s
  60   6.50039011e+01  6.49933899e+01  8.71e-05 6.94e-16  7.90e-08     9s
  61   6.50035805e+01  6.49937175e+01  8.04e-05 7.15e-16  7.41e-08     9s
  62   6.50030826e+01  6.49946165e+01  6.96e-05 7.35e-16  6.36e-08     9s
  63   6.50027187e+01  6.49946559e+01  6.25e-05 8.56e-16  6.06e-08     9s
  64   6.50026877e+01  6.49955478e+01  6.08e-05 8.09e-16  5.37e-08     9s
  65   6.50021076e+01  6.49959097e+01  4.81e-05 7.81e-16  4.66e-08     9s
  66   6.50018835e+01  6.49961414e+01  4.23e-05 9.54e-16  4.31e-08    10s
  67   6.50015677e+01  6.49966840e+01  3.64e-05 7.36e-16  3.67e-08    10s
  68   6.50013830e+01  6.49968973e+01  3.18e-05 8.01e-16  3.37e-08    10s
  69   6.50013332e+01  6.49973528e+01  2.98e-05 6.93e-16  2.99e-08    10s
  70   6.50012056e+01  6.49977384e+01  2.63e-05 7.03e-16  2.60e-08    10s
  71   6.50010182e+01  6.49983763e+01  2.02e-05 7.63e-16  1.98e-08    10s
  72   6.50009379e+01  6.49987847e+01  1.75e-05 6.65e-16  1.62e-08    10s
  73   6.50009214e+01  6.49988118e+01  1.71e-05 6.96e-16  1.58e-08    10s
  74   6.50007865e+01  6.49988666e+01  1.50e-05 7.44e-16  1.44e-08    10s
  75   6.50005888e+01  6.49991362e+01  1.15e-05 6.49e-16  1.09e-08    11s
  76   6.50004244e+01  6.49992907e+01  8.63e-06 5.95e-16  8.52e-09    11s
  77   6.50003833e+01  6.49993253e+01  7.84e-06 7.57e-16  7.95e-09    11s
  78   6.50002460e+01  6.49994872e+01  5.04e-06 6.48e-16  5.70e-09    11s
  79   6.50002418e+01  6.49996042e+01  4.70e-06 6.56e-16  4.79e-09    11s
  80   6.50001787e+01  6.49997041e+01  3.33e-06 6.02e-16  3.56e-09    11s
  81   6.50001204e+01  6.49998111e+01  2.08e-06 4.36e-16  2.32e-09    11s
  82   6.50000945e+01  6.49998952e+01  1.60e-06 4.95e-16  1.50e-09    11s
  83   6.50000894e+01  6.49999012e+01  1.51e-06 4.86e-16  1.41e-09    11s
  84   6.50000770e+01  6.49999304e+01  1.30e-06 4.92e-16  1.10e-09    11s
  85   6.50000477e+01  6.49999497e+01  7.84e-07 5.05e-16  7.37e-10    12s
  86   6.50000234e+01  6.49999657e+01  3.70e-07 4.86e-16  4.33e-10    12s
  87   6.50000211e+01  6.49999846e+01  3.30e-07 4.79e-16  2.74e-10    12s
  88   6.50000115e+01  6.49999916e+01  1.77e-07 4.29e-16  1.50e-10    12s
  89   6.50000039e+01  6.49999934e+01  5.75e-08 4.50e-16  7.88e-11    12s
  90   6.50000020e+01  6.49999983e+01  2.92e-08 3.94e-16  2.73e-11    12s
  91   6.50000001e+01  6.50000000e+01  1.36e-09 3.69e-16  8.90e-13    12s
  92   6.50000000e+01  6.50000000e+01  2.90e-11 3.86e-16  1.05e-15    12s

Barrier solved model in 92 iterations and 12.25 seconds
Optimal objective 6.50000000e+01


Root crossover log...

     861 DPushes remaining with DInf 0.0000000e+00                12s
       0 DPushes remaining with DInf 1.6604455e+00                12s

   25205 PPushes remaining with PInf 0.0000000e+00                12s
       0 PPushes remaining with PInf 0.0000000e+00                13s

  Push phase complete: Pinf 0.0000000e+00, Dinf 1.7152946e-14     13s


Root simplex log...

Iteration    Objective       Primal Inf.    Dual Inf.      Time
   26068    6.5000000e+01   0.000000e+00   0.000000e+00     13s
   26068    6.5000000e+01   0.000000e+00   0.000000e+00     13s

Root relaxation: objective 6.500000e+01, 26068 iterations, 11.16 seconds

    Nodes    |    Current Node    |     Objective Bounds      |     Work
 Expl Unexpl |  Obj  Depth IntInf | Incumbent    BestBd   Gap | It/Node Time

     0     0   65.00000    0  180   91.00000   65.00000  28.6%     -   13s
H    0     0                      66.0000000   65.00000  1.52%     -   15s
H    0     0                      65.0000000   65.00000  0.00%     -   15s

Explored 0 nodes (27199 simplex iterations) in 15.43 seconds
Thread count was 1 (of 4 available processors)

Optimal solution found (tolerance 0.00e+00)
Best objective 6.500000000000e+01, best bound 6.500000000000e+01, gap 0.0%
Preprocessing time: 2.10 seconds
Gurobi run time: 15.43 seconds
Total run time: 17.53 seconds
Objective: 65
Solution:
1 x [i=1, i=128, i=161]
1 x [i=2, i=127, i=162]
1 x [i=3, i=126, i=160]
1 x [i=4, i=124, i=160]
1 x [i=5, i=125, i=159]
1 x [i=6, i=123, i=159]
1 x [i=7, i=122, i=159]
1 x [i=8, i=120, i=158]
1 x [i=9, i=121, i=157]
1 x [i=10, i=118, i=158]
1 x [i=11, i=119, i=157]
1 x [i=12, i=117, i=158]
1 x [i=13, i=115, i=156]
1 x [i=14, i=112, i=158]
1 x [i=15, i=114, i=154]
1 x [i=16, i=113, i=154]
1 x [i=17, i=111, i=153]
1 x [i=18, i=110, i=152]
1 x [i=19, i=109, i=154]
1 x [i=20, i=108, i=151]
1 x [i=21, i=107, i=150]
1 x [i=22, i=106, i=155]
1 x [i=23, i=102, i=163]
1 x [i=24, i=106, i=149]
1 x [i=25, i=105, i=149]
1 x [i=26, i=103, i=148]
1 x [i=27, i=102, i=148]
1 x [i=28, i=101, i=147]
1 x [i=29, i=100, i=147]
1 x [i=30, i=99, i=146]
1 x [i=31, i=93, i=154]
1 x [i=32, i=98, i=145]
1 x [i=33, i=97, i=145]
1 x [i=34, i=96, i=145]
1 x [i=35, i=95, i=146]
1 x [i=36, i=94, i=144]
1 x [i=37, i=86, i=165]
1 x [i=38, i=91, i=142]
1 x [i=39, i=89, i=146, i=164]
1 x [i=40, i=88, i=141]
1 x [i=41, i=87, i=140]
1 x [i=42, i=85, i=140]
1 x [i=43, i=84, i=140]
1 x [i=44, i=83, i=141, i=165]
1 x [i=45, i=82, i=139]
1 x [i=46, i=104, i=116, i=154, i=158]
1 x [i=47, i=78, i=158]
1 x [i=48, i=81, i=138]
1 x [i=49, i=80, i=138]
1 x [i=50, i=79, i=137]
1 x [i=51, i=77, i=143]
1 x [i=52, i=68]
1 x [i=53, i=76, i=135]
1 x [i=54, i=74, i=134]
1 x [i=55, i=73, i=133]
1 x [i=56, i=72, i=136]
1 x [i=57, i=72, i=132]
1 x [i=58, i=71, i=132]
1 x [i=59, i=70, i=132]
1 x [i=60, i=70, i=131]
1 x [i=61, i=69, i=130]
1 x [i=62, i=67, i=129]
1 x [i=63, i=66, i=129]
1 x [i=64, i=65, i=129]
1 x [i=75, i=90, i=92, i=116, i=139, i=148, i=148]
